data;

param num_top:=6;

#nodes and edges of the physical network
param n := 10;

set E := (1,2) (1,3) (1,7) (2,4) (2,7) (3,5) (4,8) (5,6) (5,7) (6,7) (6,9) (7,8) (7,9) (8,10) (9,10) ;

#nodes and edges of the virtual networks
set Nl[1] := 4 10 5 9 ;
set Nl[2] := 5 2 4 3 ;
set Nl[3] := 10 2 3 7 ;
set Nl[4] := 2 8 3 7 ;
set Nl[5] := 7 6 5 9 ;
set Nl[6] := 10 7 8 5 ;

set El[1] := (4,10) (5,10) (5,9) (4,9) (4,5) (9,10) ;
set El[2] := (2,5) (2,4) (3,4) (3,5) (4,5) (2,3) ;
set El[3] := (2,10) (2,3) (3,7) (7,10) (3,10) (2,7) ;
set El[4] := (2,8) (3,8) (3,7) (2,7) (2,3) (7,8) ;
set El[5] := (6,7) (5,6) (5,9) (7,9) (6,9) (5,7) ;
set El[6] := (7,10) (7,8) (5,8) (5,10) (5,7) (8,10) ;
